%%% static parameters %%%
timespan = 1;
Clients_N = [500];
Demand_W = [20];
Lt0 = [4];
Lt1 = [4];
SS_ = [0.85];
DS_D = [6];
K = [200];
MA = [500];
HC = [0.05];
%%% dynamic parameters %%%
lost_ratio_sales_ret_th = 0.0006059641964874951;
lost_ratio_sales_ret_w = 9;
lost_ratio_sales_dis_th = 0.0003572070794580332;
lost_ratio_sales_dis_w = 28;
lost_ratio_sales_fac_th = 0.0002449205905932285;
lost_ratio_sales_fac_w = 10;
stock_customer_MA_mean_relative_th = 0.5593123886977318;
stock_customer_MA_mean_relative_w = 84;
stock_distributor_MA_mean_relative_th = 0.09837711624806211;
stock_distributor_MA_mean_relative_w = 17;
stock_retailer_MA_mean_relative_th = 0.895131209343077;
stock_retailer_MA_mean_relative_w = 76;
stock_factory_MA_mean_relative_th = 0.06578087298131063;
stock_factory_MA_mean_relative_w = 56;
